FourierSAT_Github_AIJ/benchmarks/MAXSAT_benchmarks/random/1/dimacs-mod/c-fat200-1.clq.cnf
c File:  c-fat200-1.clq
c
c Source: Panos Pardalos pardalos@math.ufl.edu
c
c Reference: P. Berman and A. Pelc, Distributed Fault Diagnosis for
c            Multiprocessor Systems, Proceedings of the 20th Annual
c            International Symposium on Fault-Tolerant Computing
c            Newcastle, UK, 340-346 (1990)
c
p cnf 40 92
1 16 0
-1 -16 0
1 23 0
-1 -23 0
1 38 0
-1 -38 0
2 17 0
-2 -17 0
2 24 0
-2 -24 0
2 39 0
-2 -39 0
3 18 0
-3 -18 0
3 25 0
-3 -25 0
3 40 0
-3 -40 0
4 19 0
-4 -19 0
4 26 0
-4 -26 0
5 20 0
-5 -20 0
5 27 0
-5 -27 0
6 21 0
-6 -21 0
6 28 0
-6 -28 0
7 22 0
-7 -22 0
7 29 0
-7 -29 0
8 23 0
-8 -23 0
8 30 0
-8 -30 0
9 24 0
-9 -24 0
9 31 0
-9 -31 0
10 25 0
-10 -25 0
10 32 0
-10 -32 0
11 26 0
-11 -26 0
11 33 0
-11 -33 0
12 27 0
-12 -27 0
12 34 0
-12 -34 0
13 28 0
-13 -28 0
13 35 0
-13 -35 0
14 29 0
-14 -29 0
14 36 0
-14 -36 0
15 30 0
-15 -30 0
15 37 0
-15 -37 0
16 31 0
-16 -31 0
16 38 0
-16 -38 0
17 32 0
-17 -32 0
17 39 0
-17 -39 0
18 33 0
-18 -33 0
18 40 0
-18 -40 0
19 34 0
-19 -34 0
20 35 0
-20 -35 0
21 36 0
-21 -36 0
22 37 0
-22 -37 0
23 38 0
-23 -38 0
24 39 0
-24 -39 0
25 40 0
-25 -40 0
