FourierSAT_Github_AIJ/res/fs_1core/c-fat200-1.clq.cnf.txt
o 10
o 8
o 7
o 6
